(declare-fun var0 () String)
(declare-fun var1 () String)
(declare-fun var2 () String)
(declare-fun var3 () String)
(declare-fun var4 () String)
(declare-fun var5 () String)
(declare-fun var6 () String)
(declare-fun var7 () String)
(declare-fun var8 () String)
(declare-fun var9 () String)
(declare-fun var10 () String)
(declare-fun var11 () String)
(declare-fun var12 () String)
(declare-fun var13 () String)
(declare-fun var14 () String)
(declare-fun var15 () String)
(declare-fun var16 () String)
(declare-fun var17 () String)
(declare-fun var18 () String)
(declare-fun var19 () String)
(declare-fun var20 () String)
(declare-fun var21 () String)
(declare-fun var22 () String)
(declare-fun var23 () String)
(declare-fun var24 () String)
(declare-fun var25 () String)
(declare-fun var26 () String)
(declare-fun var27 () String)
(declare-fun var28 () String)
(declare-fun var29 () String)
(declare-fun var30 () String)
(declare-fun var31 () String)
(declare-fun var32 () String)
(declare-fun var33 () String)
(declare-fun var34 () String)
(declare-fun var35 () String)
(declare-fun var36 () String)
(declare-fun var37 () String)
(declare-fun var38 () String)
(declare-fun var39 () String)
(declare-fun var40 () String)
(declare-fun var41 () String)
(declare-fun var42 () String)
(declare-fun var43 () String)
(declare-fun var44 () String)
(declare-fun var45 () String)
(declare-fun var46 () String)
(declare-fun var47 () String)
(declare-fun var48 () String)
(declare-fun var49 () String)
(declare-fun var50 () String)
(declare-fun var51 () String)
(declare-fun var52 () String)
(declare-fun var53 () String)
(declare-fun var54 () String)
(declare-fun var55 () String)
(declare-fun var56 () String)
(declare-fun var57 () String)
(declare-fun var58 () String)
(declare-fun var59 () String)
(declare-fun var60 () String)
(assert (= var0 (Concat var1 var2)))
(assert (= var2 (Concat var3 var4)))
(assert (= var4 (Concat var5 var6)))
(assert (= var6 (Concat var7 var8)))
(assert (= var8 (Concat var9 var10)))
(assert (= var10 (Concat var11 var12)))
(assert (= var12 (Concat var13 var14)))
(assert (= var14 (Concat var15 var16)))
(assert (= var16 (Concat var17 var18)))
(assert (= var18 (Concat var19 var20)))
(assert (= var20 (Concat var21 var22)))
(assert (= var22 (Concat var23 var24)))
(assert (= var24 (Concat var25 var26)))
(assert (= var26 (Concat var27 var28)))
(assert (= var28 (Concat var29 var30)))
(assert (= var30 (Concat var31 var32)))
(assert (= var32 (Concat var33 var34)))
(assert (= var34 (Concat var35 var36)))
(assert (= var36 (Concat var37 var38)))
(assert (= var38 (Concat var39 var40)))
(assert (= var40 (Concat var41 var42)))
(assert (= var42 (Concat var43 var44)))
(assert (= var44 (Concat var45 var46)))
(assert (= var46 (Concat var47 var48)))
(assert (= var48 (Concat var49 var50)))
(assert (= var50 (Concat var51 var52)))
(assert (= var52 (Concat var53 var54)))
(assert (= var54 (Concat var55 var56)))
(assert (= var56 (Concat var57 var58)))
(assert (= var58 (Concat var59 var60)))
(assert (= var0 "solution"))
(assert (= ")" (CharAt var9 536)))
(assert (= "=" (CharAt var39 964)))
(assert (= "D" (CharAt var9 290)))
(assert (= "\"" (CharAt var44 367)))
(assert (= "r" (CharAt var25 509)))
(assert (= "'" (CharAt var52 761)))
(assert (= "J" (CharAt var33 636)))
(assert (= "8" (CharAt var58 324)))
(assert (= "3" (CharAt var30 578)))
(assert (= "j" (CharAt var24 758)))
(assert (= "#" (CharAt var8 457)))
(assert (= "8" (CharAt var42 938)))
(assert (= "a" (CharAt var19 375)))
(assert (= "Y" (CharAt var18 671)))
(assert (= "%" (CharAt var35 154)))
(assert (= "K" (CharAt var51 687)))
(assert (= "F" (CharAt var42 248)))
(assert (= "M" (CharAt var3 980)))
(assert (= "V" (CharAt var34 946)))
(assert (= "C" (CharAt var51 136)))
(assert (= "*" (CharAt var46 291)))
(assert (= "+" (CharAt var50 279)))
(assert (= "E" (CharAt var30 184)))
(assert (= "0" (CharAt var5 984)))
(assert (= "x" (CharAt var41 558)))
(assert (= "5" (CharAt var8 941)))
(assert (= ">" (CharAt var28 191)))
(assert (= "H" (CharAt var22 448)))
(assert (= "G" (CharAt var8 344)))
(assert (= "O" (CharAt var36 488)))
(assert (= "\"" (CharAt var33 311)))
(assert (= "-" (CharAt var29 286)))
(assert (= "p" (CharAt var11 74)))
(assert (= "[" (CharAt var54 362)))
(assert (= "X" (CharAt var28 446)))
(assert (= "e" (CharAt var43 482)))
(assert (= "a" (CharAt var15 280)))
(assert (= "0" (CharAt var49 746)))
(assert (= "H" (CharAt var24 802)))
(assert (= "i" (CharAt var23 191)))
(assert (= "G" (CharAt var47 137)))
(assert (= "7" (CharAt var59 795)))
(assert (= "Q" (CharAt var9 119)))
(assert (= "n" (CharAt var27 582)))
(assert (= "b" (CharAt var20 712)))
(assert (= "D" (CharAt var25 47)))
(assert (= "i" (CharAt var56 510)))
(assert (= "B" (CharAt var2 286)))
(assert (= "1" (CharAt var34 917)))
(assert (= "J" (CharAt var53 803)))
(assert (= "i" (CharAt var33 13)))
(assert (= "2" (CharAt var33 237)))
(assert (= "T" (CharAt var22 52)))
(assert (= "$" (CharAt var31 562)))
(assert (= "k" (CharAt var42 439)))
(assert (= "$" (CharAt var13 24)))
(assert (= "X" (CharAt var23 927)))
(assert (= "#" (CharAt var45 502)))
(assert (= "]" (CharAt var33 385)))
(assert (= "O" (CharAt var36 963)))
(assert (= "*" (CharAt var50 676)))
(assert (= "%" (CharAt var11 87)))
(assert (= "O" (CharAt var30 878)))
(assert (= "Q" (CharAt var27 377)))
(assert (= "\"" (CharAt var20 782)))
(assert (= "h" (CharAt var5 565)))
(assert (= "/" (CharAt var16 210)))
(assert (= "+" (CharAt var55 296)))
(assert (= "N" (CharAt var43 981)))
(assert (= "l" (CharAt var12 86)))
(assert (= ">" (CharAt var13 165)))
(assert (= "c" (CharAt var38 769)))
(assert (= "1" (CharAt var24 275)))
(assert (= "7" (CharAt var46 409)))
(assert (= "j" (CharAt var60 620)))
(assert (= "s" (CharAt var13 2)))
(assert (= "?" (CharAt var43 686)))
(assert (= "V" (CharAt var19 84)))
(assert (= "B" (CharAt var5 234)))
(assert (= "^" (CharAt var45 596)))
(assert (= "+" (CharAt var52 127)))
(assert (= "H" (CharAt var5 536)))
(assert (= "k" (CharAt var47 539)))
(assert (= "F" (CharAt var15 831)))
(assert (= "I" (CharAt var36 290)))
(assert (= "T" (CharAt var3 927)))
(assert (= "2" (CharAt var21 222)))
(assert (= "6" (CharAt var33 289)))
(assert (= "\\" (CharAt var15 491)))
(assert (= "[" (CharAt var56 114)))
(assert (= "\"" (CharAt var37 160)))
(assert (= "@" (CharAt var30 549)))
(assert (= "b" (CharAt var58 914)))
(assert (= "z" (CharAt var14 877)))
(assert (= "{" (CharAt var16 823)))
(assert (= "J" (CharAt var50 780)))
(assert (= "-" (CharAt var10 914)))
(assert (= "7" (CharAt var36 11)))
(assert (= "<" (CharAt var44 476)))
(assert (= "E" (CharAt var18 837)))
(assert (= "U" (CharAt var55 365)))
(assert (= "E" (CharAt var19 838)))
(assert (= "`" (CharAt var46 113)))
(assert (= "\"" (CharAt var10 998)))
(assert (= "#" (CharAt var51 400)))
(assert (= "d" (CharAt var33 167)))
(assert (= "C" (CharAt var19 126)))
(assert (= "^" (CharAt var60 531)))
(assert (= "/" (CharAt var13 650)))
(assert (= "I" (CharAt var7 661)))
(assert (= "|" (CharAt var54 345)))
(assert (= "G" (CharAt var39 155)))
(assert (= "h" (CharAt var44 693)))
(assert (= "9" (CharAt var25 484)))
(assert (= "~" (CharAt var29 662)))
(assert (= "_" (CharAt var38 564)))
(assert (= "R" (CharAt var53 41)))
(assert (= "x" (CharAt var9 814)))
(assert (= "q" (CharAt var30 693)))
(assert (= "G" (CharAt var25 386)))
(assert (= "N" (CharAt var11 660)))
(assert (= "6" (CharAt var60 384)))
(assert (= "C" (CharAt var27 366)))
(assert (= "E" (CharAt var48 703)))
(assert (= "x" (CharAt var48 591)))
(assert (= "z" (CharAt var2 706)))
(assert (= "1" (CharAt var28 618)))
(assert (= "N" (CharAt var56 518)))
(assert (= "@" (CharAt var13 436)))
(assert (= "Z" (CharAt var42 353)))
(assert (= "0" (CharAt var57 135)))
(assert (= "^" (CharAt var0 493)))
(assert (= "g" (CharAt var15 419)))
(assert (= "g" (CharAt var56 955)))
(assert (= "5" (CharAt var32 223)))
(assert (= "\\" (CharAt var20 675)))
(assert (= "^" (CharAt var27 823)))
(assert (= "J" (CharAt var46 401)))
(assert (= "K" (CharAt var47 504)))
(assert (= "c" (CharAt var43 258)))
(assert (= "A" (CharAt var60 946)))
(assert (= "E" (CharAt var12 102)))
(assert (= "T" (CharAt var35 573)))
(assert (= "(" (CharAt var41 594)))
(assert (= "n" (CharAt var42 169)))
(assert (= "5" (CharAt var11 689)))
(assert (= "\\" (CharAt var41 917)))
(assert (= "7" (CharAt var14 673)))
(assert (= "c" (CharAt var58 886)))
(assert (= "e" (CharAt var1 287)))
(assert (= "?" (CharAt var28 249)))
(assert (= "#" (CharAt var51 587)))
(assert (= "&" (CharAt var44 411)))
(assert (= "Z" (CharAt var43 550)))
(assert (= "s" (CharAt var18 230)))
(assert (= "j" (CharAt var37 387)))
(assert (= "S" (CharAt var5 54)))
(assert (= "e" (CharAt var4 950)))
(assert (= "*" (CharAt var6 364)))
(assert (= "t" (CharAt var41 986)))
(assert (= "l" (CharAt var39 187)))
(assert (= "0" (CharAt var18 845)))
(assert (= "}" (CharAt var49 859)))
(assert (= "\"" (CharAt var46 694)))
(assert (= ")" (CharAt var33 921)))
(assert (= "V" (CharAt var14 908)))
(assert (= "J" (CharAt var16 459)))
(assert (= "{" (CharAt var0 937)))
(assert (= "f" (CharAt var31 575)))
(assert (= "D" (CharAt var23 905)))
(assert (= "j" (CharAt var30 379)))
(assert (= "s" (CharAt var12 171)))
(assert (= "|" (CharAt var25 30)))
(assert (= "c" (CharAt var3 126)))
(assert (= "/" (CharAt var34 990)))
(assert (= "m" (CharAt var18 863)))
(assert (= "T" (CharAt var34 678)))
(assert (= "b" (CharAt var6 858)))
(assert (= "6" (CharAt var46 159)))
(assert (= "h" (CharAt var17 549)))
(assert (= "~" (CharAt var24 895)))
(assert (= "q" (CharAt var22 488)))
(assert (= "?" (CharAt var27 101)))
(assert (= "q" (CharAt var11 595)))
(assert (= "y" (CharAt var31 157)))
(assert (= "9" (CharAt var34 389)))
(assert (= "B" (CharAt var34 600)))
(assert (= "?" (CharAt var4 158)))
(assert (= "!" (CharAt var26 148)))
(assert (= "^" (CharAt var10 312)))
(assert (= "<" (CharAt var52 13)))
(assert (= "Q" (CharAt var49 378)))
(assert (= "a" (CharAt var45 407)))
(assert (= "A" (CharAt var1 221)))
(assert (= "_" (CharAt var55 399)))
(assert (= "1" (CharAt var45 901)))
(assert (= "[" (CharAt var36 66)))
(assert (= "E" (CharAt var19 333)))
(assert (= "N" (CharAt var50 848)))
(assert (= "?" (CharAt var18 544)))
(assert (= "w" (CharAt var2 378)))
(assert (= "M" (CharAt var39 523)))
(assert (= "M" (CharAt var55 330)))
(assert (= "z" (CharAt var32 299)))
(assert (= "/" (CharAt var37 765)))
(assert (= "r" (CharAt var37 388)))
(assert (= "!" (CharAt var54 883)))
(assert (= "s" (CharAt var17 731)))
(assert (= "U" (CharAt var1 744)))
(assert (= "M" (CharAt var49 834)))
(assert (= "{" (CharAt var2 569)))
(assert (= "l" (CharAt var17 615)))
(assert (= "M" (CharAt var1 201)))
(assert (= "[" (CharAt var41 437)))
(assert (= "1" (CharAt var25 647)))
(assert (= "4" (CharAt var44 884)))
(assert (= "d" (CharAt var38 337)))
(assert (= "4" (CharAt var29 767)))
(assert (= "z" (CharAt var14 353)))
(assert (= "w" (CharAt var17 68)))
(assert (= "_" (CharAt var15 321)))
(assert (= "F" (CharAt var35 890)))
(assert (= "r" (CharAt var38 332)))
(assert (= "T" (CharAt var53 95)))
(assert (= "f" (CharAt var44 674)))
(assert (= "m" (CharAt var37 116)))
(assert (= "(" (CharAt var32 772)))
(assert (= "y" (CharAt var35 387)))
(assert (= "K" (CharAt var55 442)))
(assert (= "l" (CharAt var2 255)))
(assert (= "3" (CharAt var8 617)))
(assert (= ":" (CharAt var51 575)))
(assert (= "3" (CharAt var50 339)))
(assert (= "W" (CharAt var49 573)))
(assert (= "." (CharAt var44 798)))
(assert (= "W" (CharAt var11 150)))
(assert (= "a" (CharAt var30 399)))
(assert (= "z" (CharAt var11 353)))
(assert (= "6" (CharAt var14 938)))
(assert (= ")" (CharAt var43 568)))
(assert (= "Z" (CharAt var53 626)))
(assert (= "(" (CharAt var15 87)))
(assert (= "R" (CharAt var42 290)))
(assert (= "c" (CharAt var32 798)))
(assert (= "4" (CharAt var53 329)))
(assert (= "&" (CharAt var18 842)))
(assert (= "U" (CharAt var34 24)))
(assert (= "5" (CharAt var29 22)))
(assert (= "B" (CharAt var19 173)))
(assert (= "=" (CharAt var5 939)))
(assert (= "y" (CharAt var28 438)))
(assert (= "t" (CharAt var30 911)))
(assert (= "X" (CharAt var28 920)))
(assert (= "B" (CharAt var29 541)))
(assert (= "m" (CharAt var38 218)))
(assert (= ")" (CharAt var28 363)))
(assert (= "S" (CharAt var52 754)))
(assert (= "u" (CharAt var18 829)))
(assert (= "[" (CharAt var9 507)))
(assert (= "x" (CharAt var8 513)))
(assert (= "+" (CharAt var11 855)))
(assert (= "t" (CharAt var15 241)))
(assert (= "k" (CharAt var11 386)))
(assert (= "h" (CharAt var54 652)))
(assert (= "'" (CharAt var15 622)))
(assert (= "%" (CharAt var2 234)))
(assert (= "U" (CharAt var8 61)))
(assert (= ")" (CharAt var10 474)))
(assert (= "*" (CharAt var16 800)))
(assert (= "~" (CharAt var32 684)))
(assert (= "Y" (CharAt var3 82)))
(assert (= "/" (CharAt var49 312)))
(assert (= "+" (CharAt var13 514)))
(assert (= "." (CharAt var47 830)))
(assert (= "y" (CharAt var41 63)))
(assert (= "`" (CharAt var57 571)))
(assert (= "w" (CharAt var41 780)))
(assert (= "C" (CharAt var11 440)))
(assert (= "X" (CharAt var60 890)))
(assert (= "}" (CharAt var33 178)))
(assert (= "k" (CharAt var16 957)))
(assert (= "2" (CharAt var18 250)))
(assert (= "b" (CharAt var32 576)))
(assert (= "I" (CharAt var6 414)))
(assert (= "!" (CharAt var41 504)))
(assert (= "~" (CharAt var55 445)))
(assert (= "U" (CharAt var33 218)))
(assert (= "}" (CharAt var50 633)))
(assert (= "%" (CharAt var54 185)))
(assert (= "~" (CharAt var19 893)))
(assert (= "m" (CharAt var50 354)))
(assert (= "h" (CharAt var50 856)))
(assert (= "f" (CharAt var1 322)))
(assert (= "]" (CharAt var27 839)))
(assert (= "0" (CharAt var38 839)))
(assert (= "Z" (CharAt var38 892)))
(assert (= "A" (CharAt var1 860)))
(assert (= "4" (CharAt var24 214)))
(assert (= "z" (CharAt var20 937)))
(assert (= "$" (CharAt var28 650)))
(assert (= "." (CharAt var0 869)))
(assert (= "J" (CharAt var32 109)))
(assert (= "F" (CharAt var49 467)))
(assert (= "N" (CharAt var34 132)))
(assert (= "?" (CharAt var19 510)))
(assert (= "P" (CharAt var22 495)))
(assert (= "t" (CharAt var53 249)))
(assert (= "4" (CharAt var10 729)))
(assert (= ":" (CharAt var37 35)))
(assert (= "i" (CharAt var28 534)))
(assert (= "w" (CharAt var25 348)))
(assert (= "g" (CharAt var45 199)))
(assert (= "p" (CharAt var60 4)))
(assert (= "o" (CharAt var25 824)))
(assert (= "0" (CharAt var40 339)))
(assert (= "K" (CharAt var31 534)))
(assert (= "2" (CharAt var44 659)))
(assert (= "V" (CharAt var47 890)))
(assert (= "`" (CharAt var10 492)))
(assert (= "N" (CharAt var7 913)))
(assert (= "?" (CharAt var28 329)))
(assert (= "K" (CharAt var44 97)))
(assert (= "|" (CharAt var8 178)))
(assert (= "D" (CharAt var15 504)))
(assert (= "L" (CharAt var29 993)))
(assert (= "e" (CharAt var9 653)))
(assert (= "~" (CharAt var20 517)))
(assert (= "<" (CharAt var39 459)))
(assert (= "~" (CharAt var28 561)))
(assert (= "Q" (CharAt var54 577)))
(assert (= "e" (CharAt var14 259)))
(assert (= "_" (CharAt var43 395)))
(assert (= "n" (CharAt var50 459)))
(assert (= "L" (CharAt var4 616)))
(assert (= "W" (CharAt var6 731)))
(assert (= "2" (CharAt var17 580)))
(assert (= "$" (CharAt var20 698)))
(assert (= "4" (CharAt var7 603)))
(assert (= "^" (CharAt var20 429)))
(assert (= "-" (CharAt var19 172)))
(assert (= "[" (CharAt var18 690)))
(assert (= "k" (CharAt var57 374)))
(assert (= "T" (CharAt var15 324)))
(assert (= "C" (CharAt var56 457)))
(assert (= "?" (CharAt var33 475)))
(assert (= "y" (CharAt var16 426)))
(assert (= "z" (CharAt var37 479)))
(assert (= "J" (CharAt var56 474)))
(assert (= "E" (CharAt var30 860)))
(assert (= "h" (CharAt var35 365)))
(assert (= "%" (CharAt var47 646)))
(assert (= "i" (CharAt var32 205)))
(assert (= "=" (CharAt var0 555)))
(assert (= "4" (CharAt var17 516)))
(assert (= "=" (CharAt var53 648)))
(assert (= "*" (CharAt var45 338)))
(assert (= "X" (CharAt var48 838)))
(assert (= "9" (CharAt var7 503)))
(assert (= "s" (CharAt var2 726)))
(assert (= "n" (CharAt var55 242)))
(assert (= "&" (CharAt var58 89)))
(assert (= "9" (CharAt var7 490)))
(assert (= "M" (CharAt var16 705)))
(assert (= "S" (CharAt var30 505)))
(assert (= "J" (CharAt var18 182)))
(assert (= "f" (CharAt var1 147)))
(assert (= "F" (CharAt var35 269)))
(assert (= "g" (CharAt var36 178)))
(assert (= "K" (CharAt var14 565)))
(assert (= "<" (CharAt var52 344)))
(assert (= "i" (CharAt var16 859)))
(assert (= "U" (CharAt var22 553)))
(assert (= "O" (CharAt var10 841)))
(assert (= "P" (CharAt var55 973)))
(assert (= "B" (CharAt var54 55)))
(assert (= "v" (CharAt var1 974)))
(assert (= "Z" (CharAt var0 117)))
(assert (= "j" (CharAt var57 837)))
(assert (= "&" (CharAt var37 273)))
(assert (= "," (CharAt var39 241)))
(assert (= "9" (CharAt var3 288)))
(assert (= "l" (CharAt var48 349)))
(assert (= "," (CharAt var42 984)))
(assert (= "w" (CharAt var6 97)))
(assert (= "!" (CharAt var42 556)))
(assert (= "X" (CharAt var44 873)))
(assert (= "v" (CharAt var50 889)))
(assert (= "1" (CharAt var37 995)))
(assert (= "<" (CharAt var38 866)))
(assert (= "3" (CharAt var33 232)))
(assert (= "3" (CharAt var17 426)))
(assert (= "!" (CharAt var53 553)))
(assert (= "d" (CharAt var10 816)))
(assert (= "x" (CharAt var14 79)))
(assert (= "g" (CharAt var54 896)))
(assert (= "Y" (CharAt var37 227)))
(assert (= "Q" (CharAt var36 112)))
(assert (= "q" (CharAt var30 686)))
(assert (= "D" (CharAt var59 934)))
(assert (= "7" (CharAt var48 599)))
(assert (= "h" (CharAt var33 307)))
(assert (= "t" (CharAt var29 179)))
(assert (= "B" (CharAt var50 815)))
(assert (= "!" (CharAt var5 813)))
(assert (= "N" (CharAt var42 428)))
(assert (= "m" (CharAt var46 725)))
(assert (= ")" (CharAt var31 807)))
(assert (= "k" (CharAt var8 17)))
(assert (= "`" (CharAt var11 147)))
(assert (= "3" (CharAt var29 905)))
(assert (= "7" (CharAt var34 744)))
(assert (= "}" (CharAt var15 335)))
(assert (= "1" (CharAt var23 316)))
(assert (= "[" (CharAt var54 218)))
(assert (= "C" (CharAt var32 92)))
(assert (= "u" (CharAt var51 781)))
(assert (= "*" (CharAt var41 407)))
(assert (= "R" (CharAt var57 533)))
(assert (= "r" (CharAt var8 792)))
(assert (= "9" (CharAt var33 497)))
(assert (= "\"" (CharAt var30 611)))
(assert (= "0" (CharAt var0 765)))
(assert (= "a" (CharAt var35 168)))
(assert (= "M" (CharAt var5 148)))
(assert (= "!" (CharAt var15 224)))
(assert (= "q" (CharAt var17 213)))
(assert (= "R" (CharAt var31 427)))
(assert (= "q" (CharAt var39 100)))
(assert (= "=" (CharAt var36 185)))
(assert (= "(" (CharAt var40 652)))
(assert (= "v" (CharAt var36 948)))
(assert (= "u" (CharAt var9 864)))
(assert (= "/" (CharAt var42 942)))
(assert (= "9" (CharAt var34 64)))
(assert (= "W" (CharAt var2 974)))
(assert (= "[" (CharAt var43 930)))
(assert (= "." (CharAt var39 795)))
(assert (= ";" (CharAt var22 377)))
(assert (= "W" (CharAt var52 812)))
(assert (= "*" (CharAt var38 980)))
(assert (= "!" (CharAt var36 930)))
(assert (= "P" (CharAt var54 410)))
(assert (= "[" (CharAt var4 108)))
(assert (= "?" (CharAt var43 657)))
(assert (= ";" (CharAt var2 574)))
(assert (= "o" (CharAt var50 44)))
(assert (= "|" (CharAt var0 396)))
(assert (= "#" (CharAt var6 150)))
(assert (= "/" (CharAt var58 664)))
(assert (= "9" (CharAt var43 407)))
(assert (= "c" (CharAt var18 786)))
(assert (= "}" (CharAt var11 874)))
(assert (= ":" (CharAt var60 31)))
(assert (= "j" (CharAt var9 979)))
(assert (= "#" (CharAt var49 136)))
(assert (= "{" (CharAt var25 550)))
(assert (= "%" (CharAt var13 876)))
(assert (= "{" (CharAt var15 961)))
(assert (= "e" (CharAt var2 888)))
(assert (= "k" (CharAt var11 737)))
(assert (= "o" (CharAt var18 625)))
(assert (= "_" (CharAt var50 702)))
(assert (= "3" (CharAt var4 974)))
(assert (= "]" (CharAt var6 628)))
(assert (= "!" (CharAt var21 504)))
(assert (= "{" (CharAt var25 753)))
(assert (= "t" (CharAt var41 847)))
(assert (= "'" (CharAt var47 413)))
(assert (= "}" (CharAt var6 677)))
(assert (= "P" (CharAt var44 359)))
(assert (= ":" (CharAt var59 249)))
(assert (= "3" (CharAt var4 443)))
(assert (= "\\" (CharAt var56 526)))
(assert (= "*" (CharAt var36 431)))
(assert (= "l" (CharAt var21 217)))
(assert (= "`" (CharAt var30 104)))
(assert (= "]" (CharAt var23 895)))
(assert (= "$" (CharAt var2 505)))
(assert (= "&" (CharAt var40 699)))
(assert (= "1" (CharAt var27 412)))
(assert (= "L" (CharAt var50 268)))
(assert (= "=" (CharAt var26 146)))
(assert (= "O" (CharAt var5 888)))
(assert (= "-" (CharAt var28 393)))
(assert (= "M" (CharAt var47 709)))
(assert (= "V" (CharAt var3 14)))
(assert (= "]" (CharAt var12 620)))
(assert (= "\"" (CharAt var6 602)))
(assert (= "[" (CharAt var31 956)))
(assert (= "9" (CharAt var28 106)))
(assert (= "&" (CharAt var55 800)))
(assert (= "Z" (CharAt var48 932)))
(assert (= "U" (CharAt var48 548)))
(assert (= "P" (CharAt var30 952)))
(assert (= "d" (CharAt var32 107)))
(assert (= "5" (CharAt var5 583)))
(assert (= "S" (CharAt var0 224)))
(assert (= "_" (CharAt var21 361)))
(assert (= "M" (CharAt var36 759)))
(assert (= "J" (CharAt var57 9)))
(assert (= "," (CharAt var6 450)))
(assert (= "g" (CharAt var44 760)))
(assert (= "\\" (CharAt var9 489)))
(assert (= "-" (CharAt var34 862)))
(assert (= "`" (CharAt var37 506)))
(assert (= "M" (CharAt var22 420)))
(assert (= "f" (CharAt var37 935)))
(assert (= "7" (CharAt var8 642)))
(assert (= "i" (CharAt var45 824)))
(assert (= "c" (CharAt var46 44)))
(assert (= "U" (CharAt var59 578)))
(assert (= "<" (CharAt var19 580)))
(assert (= "G" (CharAt var45 446)))
(assert (= "%" (CharAt var6 953)))
(assert (= "z" (CharAt var48 809)))
(assert (= "1" (CharAt var41 460)))
(assert (= "*" (CharAt var1 605)))
(assert (= "~" (CharAt var15 522)))
(assert (= "n" (CharAt var16 600)))
(assert (= "E" (CharAt var23 733)))
(assert (= "a" (CharAt var28 264)))
(assert (= "=" (CharAt var26 832)))
(assert (= "h" (CharAt var39 687)))
(assert (= "&" (CharAt var44 758)))
(assert (= "<" (CharAt var27 743)))
(assert (= "0" (CharAt var21 970)))
(assert (= "2" (CharAt var9 486)))
(assert (= "5" (CharAt var36 97)))
(assert (= "/" (CharAt var29 204)))
(assert (= "5" (CharAt var45 67)))
(assert (= "O" (CharAt var27 340)))
(assert (= "J" (CharAt var23 937)))
(assert (= "H" (CharAt var25 843)))
(assert (= "A" (CharAt var53 556)))
(assert (= "A" (CharAt var52 75)))
(assert (= "N" (CharAt var45 239)))
(assert (= "V" (CharAt var9 496)))
(assert (= "O" (CharAt var53 193)))
(assert (= "t" (CharAt var38 784)))
(assert (= "7" (CharAt var45 13)))
(assert (= "0" (CharAt var48 564)))
(assert (= "|" (CharAt var57 795)))
(assert (= "L" (CharAt var1 249)))
(assert (= "\"" (CharAt var48 979)))
(assert (= "p" (CharAt var41 351)))
(assert (= "|" (CharAt var58 723)))
(assert (= "7" (CharAt var21 777)))
(assert (= "a" (CharAt var51 497)))
(assert (= "p" (CharAt var44 737)))
(assert (= "H" (CharAt var9 467)))
(assert (= "t" (CharAt var18 51)))
(assert (= "G" (CharAt var34 184)))
(assert (= "Z" (CharAt var50 591)))
(assert (= "|" (CharAt var48 635)))
(assert (= "g" (CharAt var21 573)))
(assert (= "'" (CharAt var28 721)))
(assert (= ">" (CharAt var52 684)))
(assert (= "R" (CharAt var43 6)))
(assert (= ":" (CharAt var16 536)))
(assert (= "S" (CharAt var17 707)))
(assert (= "z" (CharAt var36 454)))
(assert (= "'" (CharAt var47 285)))
(assert (= "j" (CharAt var42 847)))
(assert (= "O" (CharAt var38 509)))
(assert (= "2" (CharAt var37 929)))
(assert (= "{" (CharAt var0 920)))
(assert (= "I" (CharAt var37 375)))
(assert (= "z" (CharAt var36 134)))
(assert (= "0" (CharAt var41 984)))
(assert (= "l" (CharAt var1 80)))
(assert (= "q" (CharAt var22 274)))
(assert (= "E" (CharAt var9 401)))
(assert (= "d" (CharAt var33 479)))
(assert (= "k" (CharAt var28 655)))
(assert (= "Y" (CharAt var41 225)))
(assert (= "M" (CharAt var45 177)))
(assert (= "D" (CharAt var56 175)))
(assert (= ">" (CharAt var11 909)))
(assert (= "!" (CharAt var34 342)))
(assert (= "n" (CharAt var34 575)))
(assert (= "F" (CharAt var20 152)))
(assert (= "h" (CharAt var14 681)))
(assert (= "}" (CharAt var44 489)))
(assert (= "H" (CharAt var33 16)))
(assert (= "7" (CharAt var18 314)))
(assert (= "c" (CharAt var37 378)))
(assert (= "$" (CharAt var57 683)))
(assert (= "!" (CharAt var17 92)))
(assert (= "m" (CharAt var23 214)))
(assert (= "~" (CharAt var19 777)))
(assert (= "S" (CharAt var12 699)))
(assert (= "t" (CharAt var27 349)))
(assert (= "v" (CharAt var59 561)))
(assert (= "V" (CharAt var37 159)))
(assert (= "]" (CharAt var26 100)))
(assert (= "!" (CharAt var55 435)))
(assert (= "f" (CharAt var20 425)))
(assert (= "." (CharAt var46 221)))
(assert (= "O" (CharAt var5 782)))
(assert (= "o" (CharAt var14 379)))
(assert (= "u" (CharAt var58 962)))
(assert (= "A" (CharAt var57 78)))
(assert (= "W" (CharAt var9 995)))
(assert (= ")" (CharAt var46 567)))
(assert (= "*" (CharAt var39 6)))
(assert (= "9" (CharAt var42 274)))
(assert (= "P" (CharAt var0 332)))
(assert (= "$" (CharAt var17 576)))
(assert (= "r" (CharAt var28 596)))
(assert (= "y" (CharAt var57 200)))
(assert (= "u" (CharAt var28 88)))
(assert (= "8" (CharAt var12 777)))
(assert (= "*" (CharAt var57 73)))
(assert (= "." (CharAt var38 841)))
(assert (= "R" (CharAt var11 603)))
(assert (= ")" (CharAt var9 123)))
(assert (= "C" (CharAt var46 495)))
(assert (= "#" (CharAt var8 392)))
(assert (= ":" (CharAt var24 168)))
(assert (= "X" (CharAt var12 74)))
(assert (= "+" (CharAt var0 887)))
(assert (= "O" (CharAt var55 782)))
(assert (= "3" (CharAt var22 600)))
(assert (= "P" (CharAt var16 286)))
(assert (= "`" (CharAt var32 915)))
(assert (= "|" (CharAt var28 997)))
(assert (= "[" (CharAt var27 496)))
(assert (= "e" (CharAt var33 468)))
(assert (= "R" (CharAt var53 700)))
(assert (= "]" (CharAt var15 408)))
(assert (= "V" (CharAt var40 363)))
(assert (= "t" (CharAt var21 319)))
(assert (= "=" (CharAt var1 934)))
(assert (= "]" (CharAt var50 468)))
(assert (= "_" (CharAt var11 275)))
(assert (= "r" (CharAt var54 833)))
(assert (= "=" (CharAt var20 140)))
(assert (= "T" (CharAt var9 931)))
(assert (= "!" (CharAt var20 655)))
(assert (= "n" (CharAt var38 215)))
(assert (= "'" (CharAt var45 900)))
(assert (= "D" (CharAt var29 652)))
(assert (= "l" (CharAt var43 754)))
(assert (= "Z" (CharAt var2 542)))
(assert (= "(" (CharAt var38 464)))
(assert (= "I" (CharAt var36 125)))
(assert (= "6" (CharAt var0 199)))
(assert (= "B" (CharAt var20 625)))
(assert (= ")" (CharAt var7 605)))
(assert (= "M" (CharAt var6 446)))
(assert (= "u" (CharAt var6 734)))
(assert (= "K" (CharAt var36 673)))
(assert (= "y" (CharAt var25 112)))
(assert (= "j" (CharAt var10 566)))
(assert (= "W" (CharAt var54 716)))
(assert (= "k" (CharAt var24 361)))
(assert (= "\"" (CharAt var40 17)))
(assert (= "7" (CharAt var11 647)))
(assert (= "6" (CharAt var29 245)))
(assert (= "&" (CharAt var53 616)))
(assert (= "q" (CharAt var8 618)))
(assert (= "7" (CharAt var34 858)))
(assert (= "y" (CharAt var4 675)))
(assert (= "K" (CharAt var21 883)))
(assert (= "e" (CharAt var20 308)))
(assert (= "\"" (CharAt var52 415)))
(assert (= "6" (CharAt var42 245)))
(assert (= "1" (CharAt var43 329)))
(assert (= "-" (CharAt var25 684)))
(assert (= "." (CharAt var24 680)))
(assert (= "7" (CharAt var6 231)))
(assert (= "J" (CharAt var25 289)))
(assert (= "b" (CharAt var22 701)))
(assert (= "f" (CharAt var45 441)))
(assert (= "K" (CharAt var3 178)))
(assert (= ":" (CharAt var37 76)))
(assert (= "5" (CharAt var15 189)))
(assert (= "Y" (CharAt var16 659)))
(assert (= "1" (CharAt var40 893)))
(assert (= "3" (CharAt var53 494)))
(assert (= "@" (CharAt var50 671)))
(assert (= "F" (CharAt var44 533)))
(assert (= "_" (CharAt var1 445)))
(assert (= "T" (CharAt var41 239)))
(assert (= "," (CharAt var51 48)))
(assert (= "{" (CharAt var29 945)))
(assert (= "0" (CharAt var22 359)))
(assert (= "W" (CharAt var21 967)))
(assert (= "k" (CharAt var58 297)))
(assert (= "u" (CharAt var3 864)))
(assert (= "*" (CharAt var14 861)))
(assert (= "Y" (CharAt var8 207)))
(assert (= ";" (CharAt var36 481)))
(assert (= "`" (CharAt var12 477)))
(assert (= "O" (CharAt var59 70)))
(assert (= "\"" (CharAt var28 916)))
(assert (= "A" (CharAt var48 235)))
(assert (= "F" (CharAt var51 919)))
(assert (= "$" (CharAt var3 358)))
(assert (= "$" (CharAt var16 104)))
(assert (= "D" (CharAt var34 920)))
(assert (= "u" (CharAt var22 221)))
(assert (= "p" (CharAt var30 335)))
(assert (= "!" (CharAt var35 329)))
(assert (= "9" (CharAt var9 140)))
(assert (= "F" (CharAt var4 430)))
(assert (= "(" (CharAt var35 722)))
(assert (= "&" (CharAt var51 17)))
(assert (= "*" (CharAt var57 829)))
(assert (= "!" (CharAt var20 972)))
(assert (= "o" (CharAt var8 967)))
(assert (= "{" (CharAt var58 761)))
(assert (= "a" (CharAt var7 72)))
(assert (= "\\" (CharAt var19 546)))
(assert (= "Z" (CharAt var19 122)))
(assert (= "." (CharAt var11 14)))
(assert (= "2" (CharAt var18 807)))
(assert (= "(" (CharAt var37 179)))
(assert (= "v" (CharAt var0 867)))
(assert (= "?" (CharAt var19 495)))
(assert (= "A" (CharAt var26 819)))
(assert (= "R" (CharAt var56 875)))
(assert (= "s" (CharAt var60 873)))
(assert (= "o" (CharAt var44 300)))
(assert (= "b" (CharAt var28 20)))
(assert (= "Z" (CharAt var40 672)))
(assert (= "B" (CharAt var57 914)))
(assert (= "S" (CharAt var7 804)))
(assert (= "q" (CharAt var44 76)))
(assert (= "g" (CharAt var23 367)))
(assert (= "n" (CharAt var13 669)))
(assert (= "f" (CharAt var50 685)))
(assert (= "u" (CharAt var1 82)))
(assert (= "G" (CharAt var49 686)))
(assert (= "S" (CharAt var33 678)))
(assert (= "j" (CharAt var23 157)))
(assert (= "G" (CharAt var55 474)))
(assert (= "p" (CharAt var44 650)))
(assert (= "y" (CharAt var2 736)))
(assert (= "y" (CharAt var31 337)))
(assert (= "e" (CharAt var35 383)))
(assert (= "w" (CharAt var1 431)))
(assert (= "b" (CharAt var17 0)))
(assert (= "%" (CharAt var14 778)))
(assert (= "6" (CharAt var59 450)))
(assert (= "1" (CharAt var36 752)))
(assert (= "~" (CharAt var49 978)))
(assert (= "7" (CharAt var23 359)))
(assert (= "k" (CharAt var37 559)))
(assert (= "-" (CharAt var51 983)))
(assert (= "n" (CharAt var3 801)))
(assert (= "r" (CharAt var2 413)))
(assert (= "N" (CharAt var15 307)))
(assert (= "]" (CharAt var28 587)))
(assert (= "a" (CharAt var41 78)))
(assert (= "'" (CharAt var34 936)))
(assert (= "o" (CharAt var29 121)))
(assert (= "E" (CharAt var12 868)))
(assert (= "8" (CharAt var34 889)))
(assert (= "s" (CharAt var55 652)))
(assert (= "3" (CharAt var59 132)))
(assert (= "&" (CharAt var39 371)))
(assert (= "t" (CharAt var48 943)))
(assert (= "t" (CharAt var45 913)))
(assert (= "7" (CharAt var9 777)))
(assert (= "P" (CharAt var18 954)))
(assert (= "o" (CharAt var30 749)))
(assert (= "G" (CharAt var34 865)))
(assert (= "2" (CharAt var53 794)))
(assert (= ">" (CharAt var45 788)))
(assert (= "=" (CharAt var19 917)))
(assert (= "j" (CharAt var1 399)))
(assert (= "o" (CharAt var41 76)))
(assert (= "{" (CharAt var42 652)))
(assert (= "H" (CharAt var31 556)))
(assert (= "&" (CharAt var54 802)))
(assert (= "Z" (CharAt var30 194)))
(assert (= ")" (CharAt var15 928)))
(assert (= "T" (CharAt var55 961)))
(assert (= ":" (CharAt var45 744)))
(assert (= "X" (CharAt var21 272)))
(assert (= "(" (CharAt var28 701)))
(assert (= "{" (CharAt var49 39)))
(assert (= "z" (CharAt var18 477)))
(assert (= "q" (CharAt var26 579)))
(assert (= "L" (CharAt var43 648)))
(assert (= "<" (CharAt var35 140)))
(assert (= ";" (CharAt var47 518)))
(assert (= "d" (CharAt var15 913)))
(assert (= "t" (CharAt var9 101)))
(assert (= "6" (CharAt var2 115)))
(assert (= "K" (CharAt var29 148)))
(assert (= "$" (CharAt var10 335)))
(assert (= "c" (CharAt var23 328)))
(assert (= "8" (CharAt var17 254)))
(assert (= "e" (CharAt var6 101)))
(assert (= "<" (CharAt var39 848)))
(assert (= "$" (CharAt var27 273)))
(assert (= "9" (CharAt var14 23)))
(assert (= "'" (CharAt var10 204)))
(assert (= "u" (CharAt var60 656)))
(assert (= "[" (CharAt var51 81)))
(assert (= "O" (CharAt var1 886)))
(assert (= "F" (CharAt var1 29)))
(assert (= "!" (CharAt var32 138)))
(assert (= "z" (CharAt var54 141)))
(assert (= "Y" (CharAt var48 818)))
(assert (= "j" (CharAt var27 770)))
(assert (= "/" (CharAt var47 561)))
(assert (= "3" (CharAt var14 865)))
(assert (= "," (CharAt var24 517)))
(assert (= "4" (CharAt var28 400)))
(assert (= "&" (CharAt var51 368)))
(assert (= "P" (CharAt var12 208)))
(assert (= "H" (CharAt var37 930)))
(assert (= "x" (CharAt var26 505)))
(assert (= "4" (CharAt var57 563)))
(assert (= "q" (CharAt var25 606)))
(assert (= "b" (CharAt var7 929)))
(assert (= "q" (CharAt var19 677)))
(assert (= "U" (CharAt var58 196)))
(assert (= "U" (CharAt var11 86)))
(assert (= "g" (CharAt var37 56)))
(assert (= "D" (CharAt var38 213)))
(assert (= "&" (CharAt var60 715)))
(assert (= "5" (CharAt var55 57)))
(assert (= "B" (CharAt var46 954)))
(assert (= "]" (CharAt var5 463)))
(assert (= "(" (CharAt var25 307)))
(assert (= ")" (CharAt var8 263)))
(assert (= "}" (CharAt var47 634)))
(assert (= "9" (CharAt var19 931)))
(assert (= "~" (CharAt var23 111)))
(assert (= "k" (CharAt var30 168)))
(assert (= "9" (CharAt var52 740)))
(assert (= "A" (CharAt var4 257)))
(assert (= "e" (CharAt var56 184)))
(assert (= "3" (CharAt var34 756)))
(assert (= ">" (CharAt var18 399)))
(assert (= "7" (CharAt var32 243)))
(assert (= "}" (CharAt var10 346)))
(assert (= ";" (CharAt var25 208)))
(assert (= "+" (CharAt var5 869)))
(assert (= ")" (CharAt var37 781)))
(assert (= "M" (CharAt var57 451)))
(assert (= "*" (CharAt var30 504)))
(assert (= "B" (CharAt var53 753)))
(assert (= "B" (CharAt var17 413)))
(assert (= "j" (CharAt var4 700)))
(assert (= "<" (CharAt var60 826)))
(assert (= "m" (CharAt var13 747)))
(assert (= "^" (CharAt var28 630)))
(assert (= "c" (CharAt var3 189)))
(assert (= "T" (CharAt var49 32)))
(assert (= "y" (CharAt var39 635)))
(assert (= "3" (CharAt var14 707)))
(assert (= "u" (CharAt var55 783)))
(assert (= "E" (CharAt var48 348)))
(assert (= "8" (CharAt var37 657)))
(assert (= "K" (CharAt var18 332)))
(assert (= "=" (CharAt var36 372)))
(assert (= "%" (CharAt var46 772)))
(assert (= "k" (CharAt var50 333)))
(assert (= "$" (CharAt var28 242)))
(assert (= "!" (CharAt var52 179)))
(assert (= "#" (CharAt var10 571)))
(assert (= "|" (CharAt var0 147)))
(assert (= "\\" (CharAt var53 521)))
(assert (= "^" (CharAt var59 518)))
(assert (= "S" (CharAt var9 966)))
(assert (= "," (CharAt var3 394)))
(assert (= "a" (CharAt var48 482)))
(assert (= "K" (CharAt var39 538)))
(assert (= "K" (CharAt var34 194)))
(assert (= "m" (CharAt var55 660)))
(assert (= "d" (CharAt var51 197)))
(assert (= "<" (CharAt var38 680)))
(assert (= "C" (CharAt var40 240)))
(assert (= "v" (CharAt var2 555)))
(assert (= "e" (CharAt var26 44)))
(assert (= "3" (CharAt var44 757)))
(assert (= "h" (CharAt var23 856)))
(assert (= "f" (CharAt var36 679)))
(assert (= "\\" (CharAt var4 947)))
(assert (= "2" (CharAt var41 714)))
(assert (= "P" (CharAt var54 941)))
(assert (= "'" (CharAt var5 348)))
(assert (= "u" (CharAt var24 135)))
(assert (= "\"" (CharAt var35 416)))
(assert (= "#" (CharAt var45 105)))
(assert (= "*" (CharAt var1 995)))
(assert (= "e" (CharAt var36 950)))
(assert (= "$" (CharAt var53 277)))
(assert (= "=" (CharAt var21 948)))
(assert (= "F" (CharAt var34 382)))
(assert (= "j" (CharAt var40 408)))
(assert (= "L" (CharAt var44 848)))
(assert (= "s" (CharAt var43 312)))
(assert (= ";" (CharAt var1 779)))
(assert (= "1" (CharAt var1 397)))
(assert (= "P" (CharAt var37 254)))
(assert (= "k" (CharAt var0 770)))
(assert (= "3" (CharAt var16 929)))
(assert (= "w" (CharAt var22 112)))
(assert (= "s" (CharAt var44 202)))
(assert (= "!" (CharAt var20 166)))
(assert (= "i" (CharAt var5 751)))
(assert (= "|" (CharAt var6 154)))
(assert (= "T" (CharAt var48 424)))
(assert (= "1" (CharAt var24 982)))
(assert (= "S" (CharAt var36 985)))
(assert (= "e" (CharAt var11 289)))
(assert (= "g" (CharAt var20 568)))
(assert (= "$" (CharAt var38 672)))
(assert (= "P" (CharAt var2 195)))
(assert (= "|" (CharAt var27 513)))
(assert (= "3" (CharAt var53 924)))
(assert (= "@" (CharAt var33 439)))
(assert (= "z" (CharAt var30 102)))
(assert (= "k" (CharAt var58 481)))
(assert (= "y" (CharAt var27 814)))
(check-sat)